Problem:    
Rows:       256
Columns:    89 (72 integer, 72 binary)
Non-zeros:  960
Status:     INTEGER OPTIMAL
Objective:  value = 190.428272 (MINimum)

   No.   Row name        Activity     Lower bound   Upper bound
------ ------------    ------------- ------------- -------------
     1 r.5                   1190.43             0               
     2 r.6                  -909.876       -973.38               
     3 r.7                   190.428             0               
     4 r.8                   90.1236       -959.87               
     5 r.9                   190.428             0               
     6 r.10                   119.02      -971.742               
     7 r.11                  1190.43             0               
     8 r.12                 -949.554      -958.664               
     9 r.13                  190.428             0               
    10 r.14                   119.02      -952.265               
    11 r.15                  1190.43             0               
    12 r.16                  -880.98      -931.426               
    13 r.17                  1190.43             0               
    14 r.18                 -968.206       -974.68               
    15 r.19                  190.428             0               
    16 r.20                  55.2011      -961.302               
    17 r.21                  1190.43             0               
    18 r.22                 -939.151      -976.254               
    19 r.23                  190.428             0               
    20 r.24                  92.5009      -964.562               
    21 r.25                  1190.43             0               
    22 r.26                 -998.834      -998.834               
    23 r.27                  190.428             0               
    24 r.28                  11.2291      -987.702               
    25 r.29                  1190.43             0               
    26 r.30                 -809.572      -899.695               
    27 r.31                  190.428             0               
    28 r.32                  190.428      -928.189               
    29 r.33                  190.428             0               
    30 r.34                  190.428      -900.157               
    31 r.35                  1190.43             0               
    32 r.36                 -809.572      -928.592               
    33 r.37                        1             1             = 
    34 r.38                        1             1             = 
    35 r.39                        1             1             = 
    36 r.40                        1             1             = 
    37 r.41                        1             1             = 
    38 r.42                        1             1             = 
    39 r.43                        1             1             = 
    40 r.44                        1             1             = 
    41 r.45                     1001             2               
    42 r.46                    -1001         -1001               
    43 r.47                   2028.9      -971.742               
    44 r.48                     1001             2               
    45 r.49                    -1001         -1001               
    46 r.50                  1960.32      -958.664               
    47 r.51                     1001             2               
    48 r.52                    -1001         -1001               
    49 r.53                   2028.9      -952.265               
    50 r.54                     1001             2               
    51 r.55                    -1001         -1001               
    52 r.56                   2028.9      -931.426               
    53 r.57                        2             2               
    54 r.58                       -2         -1001               
    55 r.59                 -58.3295       -974.68               
    56 r.60                     1000             2               
    57 r.61                    -1000         -1001               
    58 r.62                  1965.08      -961.302               
    59 r.63                        2             2               
    60 r.64                       -2         -1001               
    61 r.65                 -29.2745      -976.254               
    62 r.66                     1000             2               
    63 r.67                    -1000         -1001               
    64 r.68                  2002.38      -964.562               
    65 r.69                 -916.351       -973.38               
    66 r.70                  83.6491       -959.87               
    67 r.71                 -916.351       -973.38               
    68 r.72                  83.6491       -959.87               
    69 r.73                 -899.695      -899.695               
    70 r.74                  100.305      -928.189               
    71 r.75                 -899.695      -899.695               
    72 r.76                  100.305      -928.189               
    73 r.77                     1001             2               
    74 r.78                    -1001         -1001               
    75 r.79                   2100.3      -900.157               
    76 r.80                     1001             2               
    77 r.81                    -1001         -1001               
    78 r.82                   2100.3      -928.592               
    79 r.83                     1001             2               
    80 r.84                    -1001         -1001               
    81 r.85                   1971.1         26.62               
    82 r.86                     1001             2               
    83 r.87                    -1001         -1001               
    84 r.88                  2039.68       40.1298               
    85 r.89                     1000             2               
    86 r.90                    -1000         -1001               
    87 r.91                     2000      -952.265               
    88 r.92                        2             2               
    89 r.93                       -2         -1001               
    90 r.94                 -931.426      -931.426               
    91 r.95                     1001             2               
    92 r.96                    -1001         -1001               
    93 r.97                  1912.77       -974.68               
    94 r.98                     1001             2               
    95 r.99                    -1001         -1001               
    96 r.100                 2004.75      -961.302               
    97 r.101                    1001             2               
    98 r.102                   -1001         -1001               
    99 r.103                 1941.83      -976.254               
   100 r.104                    1001             2               
   101 r.105                   -1001         -1001               
   102 r.106                 2042.05      -964.562               
   103 r.107                 112.546      -971.742               
   104 r.108                -956.028      -958.664               
   105 r.109                 112.546      -971.742               
   106 r.110                -956.028      -958.664               
   107 r.111                    1001             2               
   108 r.112                   -1001         -1001               
   109 r.113                 2071.41      -899.695               
   110 r.114                    1001             2               
   111 r.115                   -1001         -1001               
   112 r.116                 2139.98      -928.189               
   113 r.117                  71.408      -900.157               
   114 r.118                -928.592      -928.592               
   115 r.119                 139.982      -900.157               
   116 r.120                -860.018      -928.592               
   117 r.121                    1001             2               
   118 r.122                   -1001         -1001               
   119 r.123                  1971.1         26.62               
   120 r.124                    1001             2               
   121 r.125                   -1001         -1001               
   122 r.126                  1971.1       40.1298               
   123 r.127                    1000             2               
   124 r.128                   -1000         -1001               
   125 r.129                    2000       28.2582               
   126 r.130                       2             2               
   127 r.131                      -2         -1001               
   128 r.132                 931.426        41.336               
   129 r.133                 81.9174      -952.265               
   130 r.134                -918.083      -931.426               
   131 r.135                 68.5738      -952.265               
   132 r.136                -931.426      -931.426               
   133 r.137                    1001             2               
   134 r.138                   -1001         -1001               
   135 r.139                 1941.83      -976.254               
   136 r.140                    1001             2               
   137 r.141                   -1001         -1001               
   138 r.142                 1973.48      -964.562               
   139 r.143                 112.546      -952.265               
   140 r.144                -887.454      -931.426               
   141 r.145                 112.546      -952.265               
   142 r.146                -887.454      -931.426               
   143 r.147                    1001             2               
   144 r.148                   -1001         -1001               
   145 r.149                 2071.41      -899.695               
   146 r.150                    1001             2               
   147 r.151                   -1001         -1001               
   148 r.152                 2071.41      -928.189               
   149 r.153                  71.408      -900.157               
   150 r.154                -928.592      -928.592               
   151 r.155                  71.408      -900.157               
   152 r.156                -928.592      -928.592               
   153 r.157                       2             2               
   154 r.158                      -2         -1001               
   155 r.159                 53.0207         26.62               
   156 r.160                    1000             2               
   157 r.161                   -1000         -1001               
   158 r.162                 2039.68       40.1298               
   159 r.163                    1001             2               
   160 r.164                   -1001         -1001               
   161 r.165                 2081.92       28.2582               
   162 r.166                    1001             2               
   163 r.167                   -1001         -1001               
   164 r.168                    2000        41.336               
   165 r.169                       2             2               
   166 r.170                      -2         -1001               
   167 r.171                -976.254      -976.254               
   168 r.172                    1000             2               
   169 r.173                   -1000         -1001               
   170 r.174                 2042.05      -964.562               
   171 r.175                 -974.68       -974.68               
   172 r.176                 48.7267      -961.302               
   173 r.177                 -974.68       -974.68               
   174 r.178                 48.7267      -961.302               
   175 r.179                       2             2               
   176 r.180                      -2         -1001               
   177 r.181                -846.675      -899.695               
   178 r.182                    1000             2               
   179 r.183                   -1000         -1001               
   180 r.184                 2139.98      -928.189               
   181 r.185                 153.325      -900.157               
   182 r.186                -846.675      -928.592               
   183 r.187                 139.982      -900.157               
   184 r.188                -860.018      -928.592               
   185 r.189                       2             2               
   186 r.190                      -2         -1001               
   187 r.191                   26.62         26.62               
   188 r.192                    1000             2               
   189 r.193                   -1000         -1001               
   190 r.194                    2000       40.1298               
   191 r.195                    1001             2               
   192 r.196                   -1001         -1001               
   193 r.197                 2055.52       28.2582               
   194 r.198                    1001             2               
   195 r.199                   -1001         -1001               
   196 r.200                 1960.32        41.336               
   197 r.201                    1001             2               
   198 r.202                   -1001         -1001               
   199 r.203                 2055.52       47.7349               
   200 r.204                    1001             2               
   201 r.205                   -1001         -1001               
   202 r.206                  2028.9       68.5738               
   203 r.207                       2             2               
   204 r.208                      -2         -1001               
   205 r.209                 968.291       25.3196               
   206 r.210                    1000             2               
   207 r.211                   -1000         -1001               
   208 r.212                 1965.08       38.6982               
   209 r.213                -945.625      -976.254               
   210 r.214                 86.0264      -964.562               
   211 r.215                -945.625      -976.254               
   212 r.216                 86.0264      -964.562               
   213 r.217                -873.075      -899.695               
   214 r.218                 126.925      -928.189               
   215 r.219                -899.695      -899.695               
   216 r.220                 100.305      -928.189               
   217 r.221                 126.925      -900.157               
   218 r.222                -873.075      -928.592               
   219 r.223                 100.305      -900.157               
   220 r.224                -899.695      -928.592               
   221 r.225                    1001             2               
   222 r.226                   -1001         -1001               
   223 r.227                 1928.59       28.2582               
   224 r.228                    1001             2               
   225 r.229                   -1001         -1001               
   226 r.230                 1860.02        41.336               
   227 r.231                    1001             2               
   228 r.232                   -1001         -1001               
   229 r.233                 1928.59       47.7349               
   230 r.234                    1001             2               
   231 r.235                   -1001         -1001               
   232 r.236                 1928.59       68.5738               
   233 r.237                       2             2               
   234 r.238                      -2         -1001               
   235 r.239                 841.366       25.3196               
   236 r.240                    1000             2               
   237 r.241                   -1000         -1001               
   238 r.242                 1864.77       38.6982               
   239 r.243                    1001             2               
   240 r.244                   -1001         -1001               
   241 r.245                    2000      -900.157               
   242 r.246                    1001             2               
   243 r.247                   -1001         -1001               
   244 r.248                    2000      -928.592               
   245 r.249                    1001             2               
   246 r.250                   -1001         -1001               
   247 r.251                  1899.7         26.62               
   248 r.252                    1001             2               
   249 r.253                   -1001         -1001               
   250 r.254                  1899.7       40.1298               
   251 r.255                    1001             2               
   252 r.256                   -1001         -1001               
   253 r.257                    2000       100.305               
   254 r.258                    1001             2               
   255 r.259                   -1001         -1001               
   256 r.260                    2000       71.8105               

   No. Column name       Activity     Lower bound   Upper bound
------ ------------    ------------- ------------- -------------
     1 tt                    190.428             0               
     2 s_1_1        *              1             0             1 
     3 t_1_1                 100.305             0               
     4 s_1_7        *              1             0             1 
     5 s_2_1        *              0             0             1 
     6 t_2_1                 100.305             0               
     7 s_2_7        *              0             0             1 
     8 s_1_2        *              0             0             1 
     9 t_1_2                  71.408             0               
    10 s_1_8        *              0             0             1 
    11 s_2_2        *              1             0             1 
    12 t_2_2                 139.982             0               
    13 s_2_8        *              1             0             1 
    14 s_1_3        *              0             0             1 
    15 t_1_3                  71.408             0               
    16 s_2_3        *              1             0             1 
    17 t_2_3                  71.408             0               
    18 s_1_4        *              1             0             1 
    19 t_1_4                 153.325             0               
    20 s_2_4        *              0             0             1 
    21 t_2_4                 139.982             0               
    22 s_1_5        *              1             0             1 
    23 t_1_5                 126.925             0               
    24 s_2_5        *              0             0             1 
    25 t_2_5                 100.305             0               
    26 s_1_6        *              1             0             1 
    27 t_1_6                 183.954             0               
    28 s_2_6        *              0             0             1 
    29 t_2_6                 183.954             0               
    30 t_1_7                       0             0               
    31 t_2_7                       0             0               
    32 t_1_8                       0             0               
    33 t_2_8                       0             0               
    34 r_1_1_2      *              1             0             1 
    35 u_1_1_2      *              0             0             1 
    36 r_2_1_2      *              1             0             1 
    37 u_2_1_2      *              0             0             1 
    38 r_1_1_3      *              1             0             1 
    39 u_1_1_3      *              0             0             1 
    40 r_2_1_3      *              1             0             1 
    41 u_2_1_3      *              0             0             1 
    42 r_1_1_4      *              0             0             1 
    43 u_1_1_4      *              0             0             1 
    44 r_2_1_4      *              1             0             1 
    45 u_2_1_4      *              0             0             1 
    46 r_1_1_5      *              0             0             1 
    47 u_1_1_5      *              0             0             1 
    48 r_2_1_5      *              1             0             1 
    49 u_2_1_5      *              0             0             1 
    50 r_1_1_8      *              1             0             1 
    51 u_1_1_8      *              0             0             1 
    52 r_2_1_8      *              1             0             1 
    53 u_2_1_8      *              0             0             1 
    54 r_1_2_3      *              1             0             1 
    55 u_1_2_3      *              0             0             1 
    56 r_2_2_3      *              0             0             1 
    57 u_2_2_3      *              1             0             1 
    58 r_1_2_4      *              1             0             1 
    59 u_1_2_4      *              0             0             1 
    60 r_2_2_4      *              1             0             1 
    61 u_2_2_4      *              0             0             1 
    62 r_1_2_5      *              1             0             1 
    63 u_1_2_5      *              0             0             1 
    64 r_2_2_5      *              1             0             1 
    65 u_2_2_5      *              0             0             1 
    66 r_1_2_7      *              1             0             1 
    67 u_1_2_7      *              0             0             1 
    68 r_2_2_7      *              1             0             1 
    69 u_2_2_7      *              0             0             1 
    70 r_1_3_5      *              1             0             1 
    71 u_1_3_5      *              0             0             1 
    72 r_2_3_5      *              1             0             1 
    73 u_2_3_5      *              0             0             1 
    74 r_1_3_7      *              1             0             1 
    75 u_1_3_7      *              0             0             1 
    76 r_2_3_7      *              1             0             1 
    77 u_2_3_7      *              0             0             1 
    78 r_1_4_5      *              0             0             1 
    79 u_1_4_5      *              1             0             1 
    80 r_2_4_5      *              1             0             1 
    81 u_2_4_5      *              0             0             1 
    82 r_1_4_7      *              0             0             1 
    83 u_1_4_7      *              1             0             1 
    84 r_2_4_7      *              1             0             1 
    85 u_2_4_7      *              0             0             1 
    86 r_1_7_8      *              1             0             1 
    87 u_1_7_8      *              0             0             1 
    88 r_2_7_8      *              1             0             1 
    89 u_2_7_8      *              0             0             1 

Integer feasibility conditions:

KKT.PE: max.abs.err = 4.55e-13 on row 164
        max.rel.err = 1.07e-16 on row 193
        High quality

KKT.PB: max.abs.err = 2.27e-13 on row 22
        max.rel.err = 7.97e-15 on row 187
        High quality

End of output
